certificates/rado_a15_c125_N42.cnf
c Rad2 upper bound instance: x1 + 15*x2 - x3 = 125, interval [1,42]
p cnf 42 234
1 9 11 0
-1 -9 -11 0
1 10 26 0
-1 -10 -26 0
1 11 41 0
-1 -11 -41 0
2 9 12 0
-2 -9 -12 0
2 10 27 0
-2 -10 -27 0
2 11 42 0
-2 -11 -42 0
3 9 13 0
-3 -9 -13 0
3 10 28 0
-3 -10 -28 0
4 9 14 0
-4 -9 -14 0
4 10 29 0
-4 -10 -29 0
5 9 15 0
-5 -9 -15 0
5 10 30 0
-5 -10 -30 0
1 6 8 0
-1 -6 -8 0
6 9 16 0
-6 -9 -16 0
6 10 31 0
-6 -10 -31 0
2 7 8 0
-2 -7 -8 0
7 9 17 0
-7 -9 -17 0
7 10 32 0
-7 -10 -32 0
3 8 0
-3 -8 0
8 9 18 0
-8 -9 -18 0
8 10 33 0
-8 -10 -33 0
4 8 9 0
-4 -8 -9 0
9 19 0
-9 -19 0
9 10 34 0
-9 -10 -34 0
5 8 10 0
-5 -8 -10 0
9 10 20 0
-9 -10 -20 0
10 35 0
-10 -35 0
6 8 11 0
-6 -8 -11 0
9 11 21 0
-9 -11 -21 0
10 11 36 0
-10 -11 -36 0
7 8 12 0
-7 -8 -12 0
9 12 22 0
-9 -12 -22 0
10 12 37 0
-10 -12 -37 0
8 13 0
-8 -13 0
9 13 23 0
-9 -13 -23 0
10 13 38 0
-10 -13 -38 0
8 9 14 0
-8 -9 -14 0
9 14 24 0
-9 -14 -24 0
10 14 39 0
-10 -14 -39 0
8 10 15 0
-8 -10 -15 0
9 15 25 0
-9 -15 -25 0
10 15 40 0
-10 -15 -40 0
8 11 16 0
-8 -11 -16 0
9 16 26 0
-9 -16 -26 0
10 16 41 0
-10 -16 -41 0
8 12 17 0
-8 -12 -17 0
9 17 27 0
-9 -17 -27 0
10 17 42 0
-10 -17 -42 0
8 13 18 0
-8 -13 -18 0
9 18 28 0
-9 -18 -28 0
8 14 19 0
-8 -14 -19 0
9 19 29 0
-9 -19 -29 0
8 15 20 0
-8 -15 -20 0
9 20 30 0
-9 -20 -30 0
1 7 21 0
-1 -7 -21 0
8 16 21 0
-8 -16 -21 0
9 21 31 0
-9 -21 -31 0
2 7 22 0
-2 -7 -22 0
8 17 22 0
-8 -17 -22 0
9 22 32 0
-9 -22 -32 0
3 7 23 0
-3 -7 -23 0
8 18 23 0
-8 -18 -23 0
9 23 33 0
-9 -23 -33 0
4 7 24 0
-4 -7 -24 0
8 19 24 0
-8 -19 -24 0
9 24 34 0
-9 -24 -34 0
5 7 25 0
-5 -7 -25 0
8 20 25 0
-8 -20 -25 0
9 25 35 0
-9 -25 -35 0
6 7 26 0
-6 -7 -26 0
8 21 26 0
-8 -21 -26 0
9 26 36 0
-9 -26 -36 0
7 27 0
-7 -27 0
8 22 27 0
-8 -22 -27 0
9 27 37 0
-9 -27 -37 0
7 8 28 0
-7 -8 -28 0
8 23 28 0
-8 -23 -28 0
9 28 38 0
-9 -28 -38 0
7 9 29 0
-7 -9 -29 0
8 24 29 0
-8 -24 -29 0
9 29 39 0
-9 -29 -39 0
7 10 30 0
-7 -10 -30 0
8 25 30 0
-8 -25 -30 0
9 30 40 0
-9 -30 -40 0
7 11 31 0
-7 -11 -31 0
8 26 31 0
-8 -26 -31 0
9 31 41 0
-9 -31 -41 0
7 12 32 0
-7 -12 -32 0
8 27 32 0
-8 -27 -32 0
9 32 42 0
-9 -32 -42 0
7 13 33 0
-7 -13 -33 0
8 28 33 0
-8 -28 -33 0
7 14 34 0
-7 -14 -34 0
8 29 34 0
-8 -29 -34 0
7 15 35 0
-7 -15 -35 0
8 30 35 0
-8 -30 -35 0
1 6 36 0
-1 -6 -36 0
7 16 36 0
-7 -16 -36 0
8 31 36 0
-8 -31 -36 0
2 6 37 0
-2 -6 -37 0
7 17 37 0
-7 -17 -37 0
8 32 37 0
-8 -32 -37 0
3 6 38 0
-3 -6 -38 0
7 18 38 0
-7 -18 -38 0
8 33 38 0
-8 -33 -38 0
4 6 39 0
-4 -6 -39 0
7 19 39 0
-7 -19 -39 0
8 34 39 0
-8 -34 -39 0
5 6 40 0
-5 -6 -40 0
7 20 40 0
-7 -20 -40 0
8 35 40 0
-8 -35 -40 0
6 41 0
-6 -41 0
7 21 41 0
-7 -21 -41 0
8 36 41 0
-8 -36 -41 0
6 7 42 0
-6 -7 -42 0
7 22 42 0
-7 -22 -42 0
8 37 42 0
-8 -37 -42 0
