certificates/rado_a15_c125_N42.drat
8 -41 0
-41 -42 0
8 -42 0
-42 0
-8 41 0
41 0
-6 0
8 0
7 0
-3 0
-13 0
-36 0
-2 0
-12 0
-27 0
-28 0
-21 0
38 0
9 0
1 0
11 0
37 0
10 0
-33 0
-18 0
-19 0
-31 0
-14 0
-4 0
-17 0
-29 0
0
